223;2;0 2 3 4 5 7 8 10 12 14 16 18 19 21 22 23 25 26 27 28 30 31 32 36 37 40 41 42 44 45 46 49 51 53 54 55 56 57 61 62 63 67 71 72 73 74 76 82 84 86 87 89 92 97 98 101 102 104 105 107 108 109 110 111 112 113 114 115 117 118 120 123 127 129 131 134 139 140 142 144 145 146 147 148 150 152 155 157 158 160 161 162 163 164 165 167 168 169 170 171 173 177 178 182 184 188 190 194 201 202 204 205 207 210 212 213 214 218 224 225 228 230 231 235 237 239 240 245 247 248 251 252 253 254 256 257 258 259 261 262 263 265 268 269 272 273 274 277 278 279 280 282 283 285 286 287 288 289 291 293 294 295 296 299 300 303 304 306 310 312 313 314 315 316 317 320 321 322 330 332 335 336 339 340 342 344 346 347 348 352 353 354 357 358 361 363 367 371 372 377 381 382 387 388 389 392 393 394 396 399 400 403 405 406 407 408 409 411 413 416 417 418 419
223;2;0 2 3 4 5 7 8 10 12 14 16 18 19 21 22 23 25 26 27 28 30 31 32 36 37 40 41 42 44 45 46 49 51 53 54 55 56 57 61 62 63 67 71 72 73 74 76 82 84 86 87 89 92 95 97 98 101 102 104 105 107 108 109 110 111 112 113 114 115 117 118 120 123 127 129 134 139 140 142 144 145 146 147 148 150 152 155 157 158 160 161 162 163 164 165 167 168 169 170 171 173 177 178 182 184 188 190 194 201 202 204 205 207 210 212 213 214 218 224 225 228 230 231 235 237 239 240 245 247 248 251 252 253 254 256 257 258 259 261 262 263 265 268 269 272 273 274 277 278 279 280 282 283 285 286 287 288 289 291 293 294 296 299 300 303 304 306 310 312 313 315 316 317 320 321 322 330 332 335 336 339 340 342 344 346 347 348 349 352 353 354 357 358 361 363 367 371 372 375 377 381 382 387 388 389 392 393 394 396 399 400 403 405 406 407 408 409 411 413 416 417 418 419
223;2;2 3 4 5 7 8 10 12 14 16 18 19 20 21 22 23 26 27 28 30 31 32 36 37 40 42 44 45 46 49 51 53 54 55 56 57 61 62 63 67 71 72 73 74 76 82 84 86 87 89 92 95 97 98 101 102 104 105 107 108 109 110 111 112 113 114 115 117 118 120 123 127 129 134 139 140 141 142 144 145 146 147 148 150 152 155 157 158 160 161 162 164 165 167 168 169 170 171 173 177 178 182 184 190 194 200 201 202 204 205 207 210 212 213 214 218 224 225 230 235 237 239 240 245 247 248 251 252 253 254 256 257 258 259 261 262 263 265 268 269 272 273 274 277 278 279 280 282 283 285 286 288 289 291 293 294 295 296 299 300 303 304 306 310 312 313 314 315 316 317 320 321 322 330 332 335 336 339 340 342 344 346 347 348 352 353 354 357 358 359 360 361 363 367 370 371 372 375 377 381 382 387 388 389 392 393 394 396 399 400 403 405 406 407 408 409 410 411 413 416 417 418 419
224;2;3 4 5 7 8 10 12 14 16 18 19 20 21 22 23 26 27 28 30 31 32 36 37 40 41 42 44 45 46 49 51 52 53 54 55 56 57 61 62 63 67 71 72 73 74 76 82 84 86 87 89 92 95 97 98 101 102 104 105 107 108 109 110 111 112 113 114 115 117 118 120 123 127 129 130 131 134 139 140 141 142 145 146 147 148 150 152 155 157 158 160 161 162 163 164 165 167 168 169 170 171 173 177 178 182 184 188 190 192 194 201 202 204 205 207 210 212 213 214 218 224 225 230 231 235 237 239 240 245 247 248 251 252 253 254 256 257 258 259 261 262 263 265 268 269 272 273 274 277 278 279 280 282 283 285 286 288 289 291 293 294 295 296 299 300 303 304 306 310 312 313 315 316 317 320 321 322 330 332 335 336 339 340 342 344 346 347 348 352 353 354 357 358 361 363 367 371 372 377 379 381 382 387 388 389 392 393 394 396 399 400 403 405 406 407 408 409 410 411 413 416 417 418 419
227;2;2 3 4 5 7 8 10 11 12 14 16 18 19 20 21 22 23 26 27 28 30 31 32 36 37 40 42 44 45 46 49 51 53 54 55 56 57 61 62 63 67 71 72 73 74 76 82 84 86 87 89 92 95 97 98 101 102 104 105 107 108 109 110 111 112 113 114 115 117 118 120 123 127 129 130 134 139 140 141 142 145 146 147 148 150 152 155 157 158 160 161 162 163 164 165 167 168 169 170 171 173 177 178 182 184 190 192 194 200 201 202 204 205 207 210 212 213 214 218 224 225 230 231 232 235 237 239 240 245 247 248 251 252 253 254 256 257 258 259 261 262 263 265 268 269 272 273 274 277 278 279 280 282 283 285 286 288 289 291 293 294 295 296 299 300 303 304 306 310 312 313 315 316 317 320 321 322 324 326 330 332 335 336 339 340 342 344 346 347 348 349 352 353 354 357 358 361 363 367 371 372 377 379 381 382 387 388 389 392 393 394 396 399 400 403 405 406 407 408 409 410 411 413 416 417 418 419
